p tw 25 63
0 1
0 2
0 5
0 12
0 7
0 21
1 7
1 15
1 22
2 11
2 5
2 12
2 16
2 9
2 13
3 4
3 5
3 6
3 21
4 12
4 9
4 5
4 16
5 6
5 17
5 13
5 16
5 10
5 19
6 12
6 14
7 18
7 8
8 9
8 10
8 11
8 23
9 16
9 17
9 14
9 22
10 13
10 15
11 13
11 15
12 19
12 21
12 22
12 13
12 18
13 15
13 18
13 20
13 21
13 14
14 19
16 24
17 21
17 19
17 24
18 21
20 23
20 24
